(set-info :smt-lib-version 2.6)
(set-logic QF_NIA)
(set-info :source |
Generated by: Cristina Borralleras, Daniel Larraz, Albert Oliveras, Enric Rodriguez-Carbonell, Albert Rubio
Generated on: 2017-04-27
Generator: VeryMax
Application: Termination proving
Target solver: barcelogic
|)
(set-info :license "https://creativecommons.org/licenses/by/4.0/")
(set-info :category "industrial")
(set-info :status sat)
(declare-fun Nl2arg11 () Int)
(declare-fun Nl2arg21 () Int)
(declare-fun Nl2arg31 () Int)
(declare-fun Nl2arg12 () Int)
(declare-fun Nl2arg22 () Int)
(declare-fun Nl2arg32 () Int)
(declare-fun lam0n0 () Int)
(declare-fun lam0n1 () Int)
(declare-fun lam0n2 () Int)
(declare-fun lam0n4 () Int)
(declare-fun lam0n5 () Int)
(declare-fun lam0n3 () Int)
(declare-fun Nl2CT1 () Int)
(declare-fun Nl2CT2 () Int)
(declare-fun lam1n0 () Int)
(declare-fun lam1n1 () Int)
(declare-fun lam1n2 () Int)
(declare-fun lam1n4 () Int)
(declare-fun lam1n5 () Int)
(declare-fun lam1n3 () Int)
(declare-fun lam2n0 () Int)
(declare-fun lam2n1 () Int)
(declare-fun lam2n2 () Int)
(declare-fun lam2n4 () Int)
(declare-fun lam2n5 () Int)
(declare-fun lam2n3 () Int)
(declare-fun lam3n0 () Int)
(declare-fun lam3n1 () Int)
(declare-fun lam3n2 () Int)
(declare-fun lam3n4 () Int)
(declare-fun lam3n5 () Int)
(declare-fun lam3n3 () Int)
(declare-fun lam4n0 () Int)
(declare-fun lam4n1 () Int)
(declare-fun lam4n2 () Int)
(declare-fun lam4n4 () Int)
(declare-fun lam4n5 () Int)
(declare-fun lam4n3 () Int)
(declare-fun lam5n0 () Int)
(declare-fun lam5n1 () Int)
(declare-fun lam5n2 () Int)
(declare-fun lam5n4 () Int)
(declare-fun lam5n5 () Int)
(declare-fun lam5n3 () Int)
(declare-fun lam6n0 () Int)
(declare-fun lam6n1 () Int)
(declare-fun lam6n2 () Int)
(declare-fun lam6n4 () Int)
(declare-fun lam6n5 () Int)
(declare-fun lam6n3 () Int)
(declare-fun lam7n0 () Int)
(declare-fun lam7n1 () Int)
(declare-fun lam7n2 () Int)
(declare-fun lam7n4 () Int)
(declare-fun lam7n5 () Int)
(declare-fun lam7n3 () Int)
(declare-fun lam8n0 () Int)
(declare-fun lam8n1 () Int)
(declare-fun lam8n2 () Int)
(declare-fun lam8n4 () Int)
(declare-fun lam8n5 () Int)
(declare-fun lam8n3 () Int)
(declare-fun lam9n0 () Int)
(declare-fun lam9n1 () Int)
(declare-fun lam9n2 () Int)
(declare-fun lam9n4 () Int)
(declare-fun lam9n5 () Int)
(declare-fun lam9n3 () Int)
(declare-fun lam10n0 () Int)
(declare-fun lam10n1 () Int)
(declare-fun lam10n2 () Int)
(declare-fun lam10n4 () Int)
(declare-fun lam10n5 () Int)
(declare-fun lam10n3 () Int)
(declare-fun lam11n0 () Int)
(declare-fun lam11n1 () Int)
(declare-fun lam11n2 () Int)
(declare-fun lam11n4 () Int)
(declare-fun lam11n5 () Int)
(declare-fun lam11n3 () Int)
(declare-fun lam12n0 () Int)
(declare-fun lam12n1 () Int)
(declare-fun lam12n4 () Int)
(declare-fun lam12n5 () Int)
(declare-fun lam12n2 () Int)
(declare-fun lam12n3 () Int)
(declare-fun lam13n0 () Int)
(declare-fun lam13n1 () Int)
(declare-fun lam13n4 () Int)
(declare-fun lam13n5 () Int)
(declare-fun lam13n2 () Int)
(declare-fun lam13n3 () Int)
(declare-fun lam14n0 () Int)
(declare-fun lam14n1 () Int)
(declare-fun lam14n4 () Int)
(declare-fun lam14n5 () Int)
(declare-fun lam14n2 () Int)
(declare-fun lam14n3 () Int)
(declare-fun lam15n0 () Int)
(declare-fun lam15n1 () Int)
(declare-fun lam15n2 () Int)
(declare-fun lam15n3 () Int)
(declare-fun lam15n4 () Int)
(declare-fun lam15n5 () Int)
(declare-fun lam15n6 () Int)
(declare-fun lam16n0 () Int)
(declare-fun lam16n1 () Int)
(declare-fun lam16n2 () Int)
(declare-fun lam16n3 () Int)
(declare-fun lam16n4 () Int)
(declare-fun lam16n5 () Int)
(declare-fun lam16n6 () Int)
(declare-fun undef24 () Int)
(declare-fun undef1 () Int)
(declare-fun undef2 () Int)
(declare-fun undef25 () Int)
(declare-fun arg1 () Int)
(declare-fun arg2 () Int)
(declare-fun arg3 () Int)
(declare-fun lam20n0 () Int)
(declare-fun lam20n1 () Int)
(declare-fun lam20n2 () Int)
(declare-fun lam20n4 () Int)
(declare-fun lam20n5 () Int)
(declare-fun lam20n3 () Int)
(declare-fun RFN1_CT () Int)
(declare-fun RFN1_arg1 () Int)
(declare-fun RFN1_arg3 () Int)
(declare-fun RFN1_arg2 () Int)
(declare-fun lam24n0 () Int)
(declare-fun lam24n1 () Int)
(declare-fun lam24n2 () Int)
(declare-fun lam24n4 () Int)
(declare-fun lam24n5 () Int)
(declare-fun lam24n3 () Int)
(declare-fun lam28n0 () Int)
(declare-fun lam28n1 () Int)
(declare-fun lam28n2 () Int)
(declare-fun lam28n4 () Int)
(declare-fun lam28n5 () Int)
(declare-fun lam28n3 () Int)
(declare-fun lam32n0 () Int)
(declare-fun lam32n1 () Int)
(declare-fun lam32n2 () Int)
(declare-fun lam32n4 () Int)
(declare-fun lam32n5 () Int)
(declare-fun lam32n3 () Int)
(declare-fun lam36n0 () Int)
(declare-fun lam36n1 () Int)
(declare-fun lam36n4 () Int)
(declare-fun lam36n5 () Int)
(declare-fun lam36n2 () Int)
(declare-fun lam36n3 () Int)
(declare-fun lam18n0 () Int)
(declare-fun lam18n1 () Int)
(declare-fun lam18n2 () Int)
(declare-fun lam18n4 () Int)
(declare-fun lam18n5 () Int)
(declare-fun lam18n3 () Int)
(declare-fun lam19n0 () Int)
(declare-fun lam19n1 () Int)
(declare-fun lam19n2 () Int)
(declare-fun lam19n4 () Int)
(declare-fun lam19n5 () Int)
(declare-fun lam19n3 () Int)
(declare-fun lam22n0 () Int)
(declare-fun lam22n1 () Int)
(declare-fun lam22n2 () Int)
(declare-fun lam22n4 () Int)
(declare-fun lam22n5 () Int)
(declare-fun lam22n3 () Int)
(declare-fun lam23n0 () Int)
(declare-fun lam23n1 () Int)
(declare-fun lam23n2 () Int)
(declare-fun lam23n4 () Int)
(declare-fun lam23n5 () Int)
(declare-fun lam23n3 () Int)
(declare-fun lam26n0 () Int)
(declare-fun lam26n1 () Int)
(declare-fun lam26n2 () Int)
(declare-fun lam26n4 () Int)
(declare-fun lam26n5 () Int)
(declare-fun lam26n3 () Int)
(declare-fun lam27n0 () Int)
(declare-fun lam27n1 () Int)
(declare-fun lam27n2 () Int)
(declare-fun lam27n4 () Int)
(declare-fun lam27n5 () Int)
(declare-fun lam27n3 () Int)
(declare-fun lam30n0 () Int)
(declare-fun lam30n1 () Int)
(declare-fun lam30n2 () Int)
(declare-fun lam30n4 () Int)
(declare-fun lam30n5 () Int)
(declare-fun lam30n3 () Int)
(declare-fun lam31n0 () Int)
(declare-fun lam31n1 () Int)
(declare-fun lam31n2 () Int)
(declare-fun lam31n4 () Int)
(declare-fun lam31n5 () Int)
(declare-fun lam31n3 () Int)
(declare-fun lam34n0 () Int)
(declare-fun lam34n1 () Int)
(declare-fun lam34n4 () Int)
(declare-fun lam34n5 () Int)
(declare-fun lam34n2 () Int)
(declare-fun lam34n3 () Int)
(declare-fun lam35n0 () Int)
(declare-fun lam35n1 () Int)
(declare-fun lam35n4 () Int)
(declare-fun lam35n5 () Int)
(declare-fun lam35n2 () Int)
(declare-fun lam35n3 () Int)
(declare-fun lam17n0 () Int)
(declare-fun lam17n1 () Int)
(declare-fun lam17n2 () Int)
(declare-fun lam17n4 () Int)
(declare-fun lam17n5 () Int)
(declare-fun lam17n3 () Int)
(declare-fun lam21n0 () Int)
(declare-fun lam21n1 () Int)
(declare-fun lam21n2 () Int)
(declare-fun lam21n4 () Int)
(declare-fun lam21n5 () Int)
(declare-fun lam21n3 () Int)
(declare-fun lam25n0 () Int)
(declare-fun lam25n1 () Int)
(declare-fun lam25n2 () Int)
(declare-fun lam25n4 () Int)
(declare-fun lam25n5 () Int)
(declare-fun lam25n3 () Int)
(declare-fun lam29n0 () Int)
(declare-fun lam29n1 () Int)
(declare-fun lam29n2 () Int)
(declare-fun lam29n4 () Int)
(declare-fun lam29n5 () Int)
(declare-fun lam29n3 () Int)
(declare-fun lam33n0 () Int)
(declare-fun lam33n1 () Int)
(declare-fun lam33n4 () Int)
(declare-fun lam33n5 () Int)
(declare-fun lam33n2 () Int)
(declare-fun lam33n3 () Int)
(assert ( and ( <= ( - 2 ) Nl2arg11 ) ( <= Nl2arg11 2 ) ( <= ( - 2 ) Nl2arg21 ) ( <= Nl2arg21 2 ) ( <= ( - 2 ) Nl2arg31 ) ( <= Nl2arg31 2 ) ( <= ( - 2 ) Nl2arg12 ) ( <= Nl2arg12 2 ) ( <= ( - 2 ) Nl2arg22 ) ( <= Nl2arg22 2 ) ( <= ( - 2 ) Nl2arg32 ) ( <= Nl2arg32 2 ) ))
(assert ( or ( and ( >= lam0n0 0 ) ( >= lam0n1 0 ) ( >= lam0n2 0 ) ( >= lam0n4 0 ) ( >= lam0n5 0 ) ( > ( + ( * 1 lam0n0 ) ( * 1 lam0n1 ) ( * ( - 1 ) lam0n2 ) ( * ( - 1 ) lam0n3 ) ( * Nl2CT1 lam0n4 ) ( * Nl2CT2 lam0n5 ) ( - 1 ) ) 0 ) ( = ( + ( * ( - 1 ) lam0n2 ) ( * Nl2arg11 lam0n4 ) ( * Nl2arg12 lam0n5 ) ) 0 ) ( = ( + ( * 1 lam0n0 ) ( * 1 lam0n3 ) ( * Nl2arg21 lam0n4 ) ( * Nl2arg22 lam0n5 ) ) 0 ) ( = ( + ( * ( - 1 ) lam0n1 ) ( * Nl2arg31 lam0n4 ) ( * Nl2arg32 lam0n5 ) ) 0 ) ( = ( * ( - 2 ) lam0n0 ) 0 ) ( = ( * ( - 2 ) lam0n3 ) 0 ) ) ( and ( >= lam1n0 0 ) ( >= lam1n1 0 ) ( >= lam1n2 0 ) ( >= lam1n4 0 ) ( >= lam1n5 0 ) ( > ( + ( * 1 lam1n0 ) ( * 1 lam1n1 ) ( * ( - 1 ) lam1n2 ) ( * ( - 1 ) lam1n3 ) ( * Nl2CT1 lam1n4 ) ( * Nl2CT2 lam1n5 ) ( - 1 ( + ( + Nl2CT1 ( * Nl2arg11 1 ) ) ( * Nl2arg31 1 ) ) ) ) 0 ) ( = ( + ( * ( - 1 ) lam1n2 ) ( * Nl2arg11 lam1n4 ) ( * Nl2arg12 lam1n5 ) ( - ( + ( + 0 ( * Nl2arg11 1 ) ) ( * Nl2arg31 1 ) ) ) ) 0 ) ( = ( + ( * 1 lam1n0 ) ( * 1 lam1n3 ) ( * Nl2arg21 lam1n4 ) ( * Nl2arg22 lam1n5 ) ( - ( + ( + 0 Nl2arg21 ) ( * Nl2arg31 1 ) ) ) ) 0 ) ( = ( + ( * ( - 1 ) lam1n1 ) ( * Nl2arg31 lam1n4 ) ( * Nl2arg32 lam1n5 ) ) 0 ) ( = ( * ( - 2 ) lam1n0 ) 0 ) ( = ( * ( - 2 ) lam1n3 ) 0 ) ) ))
(assert ( or ( and ( >= lam0n0 0 ) ( >= lam0n1 0 ) ( >= lam0n2 0 ) ( >= lam0n4 0 ) ( >= lam0n5 0 ) ( > ( + ( * 1 lam0n0 ) ( * 1 lam0n1 ) ( * ( - 1 ) lam0n2 ) ( * ( - 1 ) lam0n3 ) ( * Nl2CT1 lam0n4 ) ( * Nl2CT2 lam0n5 ) ( - 1 ) ) 0 ) ( = ( + ( * ( - 1 ) lam0n2 ) ( * Nl2arg11 lam0n4 ) ( * Nl2arg12 lam0n5 ) ) 0 ) ( = ( + ( * 1 lam0n0 ) ( * 1 lam0n3 ) ( * Nl2arg21 lam0n4 ) ( * Nl2arg22 lam0n5 ) ) 0 ) ( = ( + ( * ( - 1 ) lam0n1 ) ( * Nl2arg31 lam0n4 ) ( * Nl2arg32 lam0n5 ) ) 0 ) ( = ( * ( - 2 ) lam0n0 ) 0 ) ( = ( * ( - 2 ) lam0n3 ) 0 ) ) ( and ( >= lam2n0 0 ) ( >= lam2n1 0 ) ( >= lam2n2 0 ) ( >= lam2n4 0 ) ( >= lam2n5 0 ) ( > ( + ( * 1 lam2n0 ) ( * 1 lam2n1 ) ( * ( - 1 ) lam2n2 ) ( * ( - 1 ) lam2n3 ) ( * Nl2CT1 lam2n4 ) ( * Nl2CT2 lam2n5 ) ( - 1 ( + ( + Nl2CT2 ( * Nl2arg12 1 ) ) ( * Nl2arg32 1 ) ) ) ) 0 ) ( = ( + ( * ( - 1 ) lam2n2 ) ( * Nl2arg11 lam2n4 ) ( * Nl2arg12 lam2n5 ) ( - ( + ( + 0 ( * Nl2arg12 1 ) ) ( * Nl2arg32 1 ) ) ) ) 0 ) ( = ( + ( * 1 lam2n0 ) ( * 1 lam2n3 ) ( * Nl2arg21 lam2n4 ) ( * Nl2arg22 lam2n5 ) ( - ( + ( + 0 Nl2arg22 ) ( * Nl2arg32 1 ) ) ) ) 0 ) ( = ( + ( * ( - 1 ) lam2n1 ) ( * Nl2arg31 lam2n4 ) ( * Nl2arg32 lam2n5 ) ) 0 ) ( = ( * ( - 2 ) lam2n0 ) 0 ) ( = ( * ( - 2 ) lam2n3 ) 0 ) ) ))
(assert ( or ( and ( >= lam3n0 0 ) ( >= lam3n1 0 ) ( >= lam3n2 0 ) ( >= lam3n4 0 ) ( >= lam3n5 0 ) ( > ( + ( * 1 lam3n0 ) ( * 1 lam3n1 ) ( * ( - 1 ) lam3n2 ) ( * Nl2CT1 lam3n4 ) ( * Nl2CT2 lam3n5 ) ( - 1 ) ) 0 ) ( = ( + ( * ( - 1 ) lam3n2 ) ( * Nl2arg11 lam3n4 ) ( * Nl2arg12 lam3n5 ) ) 0 ) ( = ( + ( * 1 lam3n0 ) ( * 1 lam3n3 ) ( * Nl2arg21 lam3n4 ) ( * Nl2arg22 lam3n5 ) ) 0 ) ( = ( + ( * ( - 1 ) lam3n1 ) ( * Nl2arg31 lam3n4 ) ( * Nl2arg32 lam3n5 ) ) 0 ) ( = ( * ( - 2 ) lam3n0 ) 0 ) ( = ( * ( - 2 ) lam3n3 ) 0 ) ) ( and ( >= lam4n0 0 ) ( >= lam4n1 0 ) ( >= lam4n2 0 ) ( >= lam4n4 0 ) ( >= lam4n5 0 ) ( > ( + ( * 1 lam4n0 ) ( * 1 lam4n1 ) ( * ( - 1 ) lam4n2 ) ( * Nl2CT1 lam4n4 ) ( * Nl2CT2 lam4n5 ) ( - 1 ( + ( + ( + Nl2CT1 ( * Nl2arg11 1 ) ) ( * Nl2arg21 ( - 2 ) ) ) ( * Nl2arg31 ( - 1 ) ) ) ) ) 0 ) ( = ( + ( * ( - 1 ) lam4n2 ) ( * Nl2arg11 lam4n4 ) ( * Nl2arg12 lam4n5 ) ( - ( + ( + 0 ( * Nl2arg11 1 ) ) ( * Nl2arg31 1 ) ) ) ) 0 ) ( = ( + ( * 1 lam4n0 ) ( * 1 lam4n3 ) ( * Nl2arg21 lam4n4 ) ( * Nl2arg22 lam4n5 ) ( - ( + ( + 0 ( * Nl2arg21 1 ) ) ( * Nl2arg31 1 ) ) ) ) 0 ) ( = ( + ( * ( - 1 ) lam4n1 ) ( * Nl2arg31 lam4n4 ) ( * Nl2arg32 lam4n5 ) ) 0 ) ( = ( * ( - 2 ) lam4n0 ) 0 ) ( = ( * ( - 2 ) lam4n3 ) 0 ) ) ))
(assert ( or ( and ( >= lam3n0 0 ) ( >= lam3n1 0 ) ( >= lam3n2 0 ) ( >= lam3n4 0 ) ( >= lam3n5 0 ) ( > ( + ( * 1 lam3n0 ) ( * 1 lam3n1 ) ( * ( - 1 ) lam3n2 ) ( * Nl2CT1 lam3n4 ) ( * Nl2CT2 lam3n5 ) ( - 1 ) ) 0 ) ( = ( + ( * ( - 1 ) lam3n2 ) ( * Nl2arg11 lam3n4 ) ( * Nl2arg12 lam3n5 ) ) 0 ) ( = ( + ( * 1 lam3n0 ) ( * 1 lam3n3 ) ( * Nl2arg21 lam3n4 ) ( * Nl2arg22 lam3n5 ) ) 0 ) ( = ( + ( * ( - 1 ) lam3n1 ) ( * Nl2arg31 lam3n4 ) ( * Nl2arg32 lam3n5 ) ) 0 ) ( = ( * ( - 2 ) lam3n0 ) 0 ) ( = ( * ( - 2 ) lam3n3 ) 0 ) ) ( and ( >= lam5n0 0 ) ( >= lam5n1 0 ) ( >= lam5n2 0 ) ( >= lam5n4 0 ) ( >= lam5n5 0 ) ( > ( + ( * 1 lam5n0 ) ( * 1 lam5n1 ) ( * ( - 1 ) lam5n2 ) ( * Nl2CT1 lam5n4 ) ( * Nl2CT2 lam5n5 ) ( - 1 ( + ( + ( + Nl2CT2 ( * Nl2arg12 1 ) ) ( * Nl2arg22 ( - 2 ) ) ) ( * Nl2arg32 ( - 1 ) ) ) ) ) 0 ) ( = ( + ( * ( - 1 ) lam5n2 ) ( * Nl2arg11 lam5n4 ) ( * Nl2arg12 lam5n5 ) ( - ( + ( + 0 ( * Nl2arg12 1 ) ) ( * Nl2arg32 1 ) ) ) ) 0 ) ( = ( + ( * 1 lam5n0 ) ( * 1 lam5n3 ) ( * Nl2arg21 lam5n4 ) ( * Nl2arg22 lam5n5 ) ( - ( + ( + 0 ( * Nl2arg22 1 ) ) ( * Nl2arg32 1 ) ) ) ) 0 ) ( = ( + ( * ( - 1 ) lam5n1 ) ( * Nl2arg31 lam5n4 ) ( * Nl2arg32 lam5n5 ) ) 0 ) ( = ( * ( - 2 ) lam5n0 ) 0 ) ( = ( * ( - 2 ) lam5n3 ) 0 ) ) ))
(assert ( or ( and ( >= lam6n0 0 ) ( >= lam6n1 0 ) ( >= lam6n2 0 ) ( >= lam6n4 0 ) ( >= lam6n5 0 ) ( > ( + ( * 1 lam6n0 ) ( * 1 lam6n1 ) ( * ( - 1 ) lam6n2 ) ( * ( - 1 ) lam6n3 ) ( * Nl2CT1 lam6n4 ) ( * Nl2CT2 lam6n5 ) ( - 1 ) ) 0 ) ( = ( + ( * ( - 1 ) lam6n2 ) ( * Nl2arg11 lam6n4 ) ( * Nl2arg12 lam6n5 ) ) 0 ) ( = ( + ( * ( - 1 ) lam6n0 ) ( * 1 lam6n3 ) ( * Nl2arg21 lam6n4 ) ( * Nl2arg22 lam6n5 ) ) 0 ) ( = ( + ( * ( - 1 ) lam6n1 ) ( * Nl2arg31 lam6n4 ) ( * Nl2arg32 lam6n5 ) ) 0 ) ( = ( * 2 lam6n0 ) 0 ) ( = ( * ( - 2 ) lam6n3 ) 0 ) ) ( and ( >= lam7n0 0 ) ( >= lam7n1 0 ) ( >= lam7n2 0 ) ( >= lam7n4 0 ) ( >= lam7n5 0 ) ( > ( + ( * 1 lam7n0 ) ( * 1 lam7n1 ) ( * ( - 1 ) lam7n2 ) ( * ( - 1 ) lam7n3 ) ( * Nl2CT1 lam7n4 ) ( * Nl2CT2 lam7n5 ) ( - 1 ( + ( + Nl2CT1 ( * Nl2arg11 1 ) ) ( * Nl2arg31 1 ) ) ) ) 0 ) ( = ( + ( * ( - 1 ) lam7n2 ) ( * Nl2arg11 lam7n4 ) ( * Nl2arg12 lam7n5 ) ( - ( + ( + 0 ( * Nl2arg11 1 ) ) ( * Nl2arg31 1 ) ) ) ) 0 ) ( = ( + ( * ( - 1 ) lam7n0 ) ( * 1 lam7n3 ) ( * Nl2arg21 lam7n4 ) ( * Nl2arg22 lam7n5 ) ( - ( + ( + 0 Nl2arg21 ) ( * Nl2arg31 1 ) ) ) ) 0 ) ( = ( + ( * ( - 1 ) lam7n1 ) ( * Nl2arg31 lam7n4 ) ( * Nl2arg32 lam7n5 ) ) 0 ) ( = ( * 2 lam7n0 ) 0 ) ( = ( * ( - 2 ) lam7n3 ) 0 ) ) ))
(assert ( or ( and ( >= lam6n0 0 ) ( >= lam6n1 0 ) ( >= lam6n2 0 ) ( >= lam6n4 0 ) ( >= lam6n5 0 ) ( > ( + ( * 1 lam6n0 ) ( * 1 lam6n1 ) ( * ( - 1 ) lam6n2 ) ( * ( - 1 ) lam6n3 ) ( * Nl2CT1 lam6n4 ) ( * Nl2CT2 lam6n5 ) ( - 1 ) ) 0 ) ( = ( + ( * ( - 1 ) lam6n2 ) ( * Nl2arg11 lam6n4 ) ( * Nl2arg12 lam6n5 ) ) 0 ) ( = ( + ( * ( - 1 ) lam6n0 ) ( * 1 lam6n3 ) ( * Nl2arg21 lam6n4 ) ( * Nl2arg22 lam6n5 ) ) 0 ) ( = ( + ( * ( - 1 ) lam6n1 ) ( * Nl2arg31 lam6n4 ) ( * Nl2arg32 lam6n5 ) ) 0 ) ( = ( * 2 lam6n0 ) 0 ) ( = ( * ( - 2 ) lam6n3 ) 0 ) ) ( and ( >= lam8n0 0 ) ( >= lam8n1 0 ) ( >= lam8n2 0 ) ( >= lam8n4 0 ) ( >= lam8n5 0 ) ( > ( + ( * 1 lam8n0 ) ( * 1 lam8n1 ) ( * ( - 1 ) lam8n2 ) ( * ( - 1 ) lam8n3 ) ( * Nl2CT1 lam8n4 ) ( * Nl2CT2 lam8n5 ) ( - 1 ( + ( + Nl2CT2 ( * Nl2arg12 1 ) ) ( * Nl2arg32 1 ) ) ) ) 0 ) ( = ( + ( * ( - 1 ) lam8n2 ) ( * Nl2arg11 lam8n4 ) ( * Nl2arg12 lam8n5 ) ( - ( + ( + 0 ( * Nl2arg12 1 ) ) ( * Nl2arg32 1 ) ) ) ) 0 ) ( = ( + ( * ( - 1 ) lam8n0 ) ( * 1 lam8n3 ) ( * Nl2arg21 lam8n4 ) ( * Nl2arg22 lam8n5 ) ( - ( + ( + 0 Nl2arg22 ) ( * Nl2arg32 1 ) ) ) ) 0 ) ( = ( + ( * ( - 1 ) lam8n1 ) ( * Nl2arg31 lam8n4 ) ( * Nl2arg32 lam8n5 ) ) 0 ) ( = ( * 2 lam8n0 ) 0 ) ( = ( * ( - 2 ) lam8n3 ) 0 ) ) ))
(assert ( or ( and ( >= lam9n0 0 ) ( >= lam9n1 0 ) ( >= lam9n2 0 ) ( >= lam9n4 0 ) ( >= lam9n5 0 ) ( > ( + ( * 1 lam9n0 ) ( * 1 lam9n1 ) ( * ( - 1 ) lam9n2 ) ( * Nl2CT1 lam9n4 ) ( * Nl2CT2 lam9n5 ) ( - 1 ) ) 0 ) ( = ( + ( * ( - 1 ) lam9n2 ) ( * Nl2arg11 lam9n4 ) ( * Nl2arg12 lam9n5 ) ) 0 ) ( = ( + ( * ( - 1 ) lam9n0 ) ( * 1 lam9n3 ) ( * Nl2arg21 lam9n4 ) ( * Nl2arg22 lam9n5 ) ) 0 ) ( = ( + ( * ( - 1 ) lam9n1 ) ( * Nl2arg31 lam9n4 ) ( * Nl2arg32 lam9n5 ) ) 0 ) ( = ( * 2 lam9n0 ) 0 ) ( = ( * ( - 2 ) lam9n3 ) 0 ) ) ( and ( >= lam10n0 0 ) ( >= lam10n1 0 ) ( >= lam10n2 0 ) ( >= lam10n4 0 ) ( >= lam10n5 0 ) ( > ( + ( * 1 lam10n0 ) ( * 1 lam10n1 ) ( * ( - 1 ) lam10n2 ) ( * Nl2CT1 lam10n4 ) ( * Nl2CT2 lam10n5 ) ( - 1 ( + ( + ( + Nl2CT1 ( * Nl2arg11 1 ) ) ( * Nl2arg21 ( - 2 ) ) ) ( * Nl2arg31 ( - 1 ) ) ) ) ) 0 ) ( = ( + ( * ( - 1 ) lam10n2 ) ( * Nl2arg11 lam10n4 ) ( * Nl2arg12 lam10n5 ) ( - ( + ( + 0 ( * Nl2arg11 1 ) ) ( * Nl2arg31 1 ) ) ) ) 0 ) ( = ( + ( * ( - 1 ) lam10n0 ) ( * 1 lam10n3 ) ( * Nl2arg21 lam10n4 ) ( * Nl2arg22 lam10n5 ) ( - ( + ( + 0 ( * Nl2arg21 1 ) ) ( * Nl2arg31 1 ) ) ) ) 0 ) ( = ( + ( * ( - 1 ) lam10n1 ) ( * Nl2arg31 lam10n4 ) ( * Nl2arg32 lam10n5 ) ) 0 ) ( = ( * 2 lam10n0 ) 0 ) ( = ( * ( - 2 ) lam10n3 ) 0 ) ) ))
(assert ( or ( and ( >= lam9n0 0 ) ( >= lam9n1 0 ) ( >= lam9n2 0 ) ( >= lam9n4 0 ) ( >= lam9n5 0 ) ( > ( + ( * 1 lam9n0 ) ( * 1 lam9n1 ) ( * ( - 1 ) lam9n2 ) ( * Nl2CT1 lam9n4 ) ( * Nl2CT2 lam9n5 ) ( - 1 ) ) 0 ) ( = ( + ( * ( - 1 ) lam9n2 ) ( * Nl2arg11 lam9n4 ) ( * Nl2arg12 lam9n5 ) ) 0 ) ( = ( + ( * ( - 1 ) lam9n0 ) ( * 1 lam9n3 ) ( * Nl2arg21 lam9n4 ) ( * Nl2arg22 lam9n5 ) ) 0 ) ( = ( + ( * ( - 1 ) lam9n1 ) ( * Nl2arg31 lam9n4 ) ( * Nl2arg32 lam9n5 ) ) 0 ) ( = ( * 2 lam9n0 ) 0 ) ( = ( * ( - 2 ) lam9n3 ) 0 ) ) ( and ( >= lam11n0 0 ) ( >= lam11n1 0 ) ( >= lam11n2 0 ) ( >= lam11n4 0 ) ( >= lam11n5 0 ) ( > ( + ( * 1 lam11n0 ) ( * 1 lam11n1 ) ( * ( - 1 ) lam11n2 ) ( * Nl2CT1 lam11n4 ) ( * Nl2CT2 lam11n5 ) ( - 1 ( + ( + ( + Nl2CT2 ( * Nl2arg12 1 ) ) ( * Nl2arg22 ( - 2 ) ) ) ( * Nl2arg32 ( - 1 ) ) ) ) ) 0 ) ( = ( + ( * ( - 1 ) lam11n2 ) ( * Nl2arg11 lam11n4 ) ( * Nl2arg12 lam11n5 ) ( - ( + ( + 0 ( * Nl2arg12 1 ) ) ( * Nl2arg32 1 ) ) ) ) 0 ) ( = ( + ( * ( - 1 ) lam11n0 ) ( * 1 lam11n3 ) ( * Nl2arg21 lam11n4 ) ( * Nl2arg22 lam11n5 ) ( - ( + ( + 0 ( * Nl2arg22 1 ) ) ( * Nl2arg32 1 ) ) ) ) 0 ) ( = ( + ( * ( - 1 ) lam11n1 ) ( * Nl2arg31 lam11n4 ) ( * Nl2arg32 lam11n5 ) ) 0 ) ( = ( * 2 lam11n0 ) 0 ) ( = ( * ( - 2 ) lam11n3 ) 0 ) ) ))
(assert ( or ( and ( >= lam12n0 0 ) ( >= lam12n1 0 ) ( >= lam12n4 0 ) ( >= lam12n5 0 ) ( > ( + ( * 1 lam12n0 ) ( * ( - 1 ) lam12n1 ) ( * Nl2CT1 lam12n4 ) ( * Nl2CT2 lam12n5 ) ( - 1 ) ) 0 ) ( = ( + ( * ( - 1 ) lam12n1 ) ( * Nl2arg11 lam12n4 ) ( * Nl2arg12 lam12n5 ) ) 0 ) ( = ( + ( * 1 lam12n2 ) ( * 1 lam12n3 ) ( * Nl2arg21 lam12n4 ) ( * Nl2arg22 lam12n5 ) ) 0 ) ( = ( + ( * ( - 1 ) lam12n0 ) ( * Nl2arg31 lam12n4 ) ( * Nl2arg32 lam12n5 ) ) 0 ) ( = ( * ( - 2 ) lam12n2 ) 0 ) ( = ( * ( - 2 ) lam12n3 ) 0 ) ) ( and ( >= lam13n0 0 ) ( >= lam13n1 0 ) ( >= lam13n4 0 ) ( >= lam13n5 0 ) ( > ( + ( * 1 lam13n0 ) ( * ( - 1 ) lam13n1 ) ( * Nl2CT1 lam13n4 ) ( * Nl2CT2 lam13n5 ) ( - 1 ( + ( + ( + Nl2CT1 ( * Nl2arg11 1 ) ) ( * Nl2arg21 ( - 2 ) ) ) ( * Nl2arg31 ( - 1 ) ) ) ) ) 0 ) ( = ( + ( * ( - 1 ) lam13n1 ) ( * Nl2arg11 lam13n4 ) ( * Nl2arg12 lam13n5 ) ( - ( + ( + 0 ( * Nl2arg11 1 ) ) ( * Nl2arg31 1 ) ) ) ) 0 ) ( = ( + ( * 1 lam13n2 ) ( * 1 lam13n3 ) ( * Nl2arg21 lam13n4 ) ( * Nl2arg22 lam13n5 ) ( - ( + ( + 0 ( * Nl2arg21 1 ) ) ( * Nl2arg31 1 ) ) ) ) 0 ) ( = ( + ( * ( - 1 ) lam13n0 ) ( * Nl2arg31 lam13n4 ) ( * Nl2arg32 lam13n5 ) ) 0 ) ( = ( * ( - 2 ) lam13n2 ) 0 ) ( = ( * ( - 2 ) lam13n3 ) 0 ) ) ))
(assert ( or ( and ( >= lam12n0 0 ) ( >= lam12n1 0 ) ( >= lam12n4 0 ) ( >= lam12n5 0 ) ( > ( + ( * 1 lam12n0 ) ( * ( - 1 ) lam12n1 ) ( * Nl2CT1 lam12n4 ) ( * Nl2CT2 lam12n5 ) ( - 1 ) ) 0 ) ( = ( + ( * ( - 1 ) lam12n1 ) ( * Nl2arg11 lam12n4 ) ( * Nl2arg12 lam12n5 ) ) 0 ) ( = ( + ( * 1 lam12n2 ) ( * 1 lam12n3 ) ( * Nl2arg21 lam12n4 ) ( * Nl2arg22 lam12n5 ) ) 0 ) ( = ( + ( * ( - 1 ) lam12n0 ) ( * Nl2arg31 lam12n4 ) ( * Nl2arg32 lam12n5 ) ) 0 ) ( = ( * ( - 2 ) lam12n2 ) 0 ) ( = ( * ( - 2 ) lam12n3 ) 0 ) ) ( and ( >= lam14n0 0 ) ( >= lam14n1 0 ) ( >= lam14n4 0 ) ( >= lam14n5 0 ) ( > ( + ( * 1 lam14n0 ) ( * ( - 1 ) lam14n1 ) ( * Nl2CT1 lam14n4 ) ( * Nl2CT2 lam14n5 ) ( - 1 ( + ( + ( + Nl2CT2 ( * Nl2arg12 1 ) ) ( * Nl2arg22 ( - 2 ) ) ) ( * Nl2arg32 ( - 1 ) ) ) ) ) 0 ) ( = ( + ( * ( - 1 ) lam14n1 ) ( * Nl2arg11 lam14n4 ) ( * Nl2arg12 lam14n5 ) ( - ( + ( + 0 ( * Nl2arg12 1 ) ) ( * Nl2arg32 1 ) ) ) ) 0 ) ( = ( + ( * 1 lam14n2 ) ( * 1 lam14n3 ) ( * Nl2arg21 lam14n4 ) ( * Nl2arg22 lam14n5 ) ( - ( + ( + 0 ( * Nl2arg22 1 ) ) ( * Nl2arg32 1 ) ) ) ) 0 ) ( = ( + ( * ( - 1 ) lam14n0 ) ( * Nl2arg31 lam14n4 ) ( * Nl2arg32 lam14n5 ) ) 0 ) ( = ( * ( - 2 ) lam14n2 ) 0 ) ( = ( * ( - 2 ) lam14n3 ) 0 ) ) ))
(assert ( and ( <= ( + 1 ( * ( - 1 ) undef24 ) ) 0 ) ( <= ( * ( - 1 ) undef1 ) 0 ) ( <= ( * ( - 1 ) undef2 ) 0 ) ( <= ( + 2 ( * ( - 1 ) undef25 ) ) 0 ) ( = ( + arg1 ( * ( - 1 ) undef1 ) ) 0 ) ( = ( + arg2 ( * ( - 1 ) undef2 ) ) 0 ) ( = ( + arg3 ( * ( - 1 ) undef1 ) ( * ( - 1 ) undef2 ) ) 0 ) ( <= ( + Nl2CT1 ( * ( + 0 Nl2arg11 ) arg1 ) ( * ( + 0 Nl2arg21 ) arg2 ) ( * ( + 0 Nl2arg31 ) arg3 ) ) 0 ) ( <= ( + Nl2CT2 ( * ( + 0 Nl2arg12 ) arg1 ) ( * ( + 0 Nl2arg22 ) arg2 ) ( * ( + 0 Nl2arg32 ) arg3 ) ) 0 ) ))
(assert ( or ( and ( and ( and ( >= lam20n0 0 ) ( >= lam20n1 0 ) ( >= lam20n2 0 ) ( >= lam20n4 0 ) ( >= lam20n5 0 ) ( > ( + ( * 1 lam20n0 ) ( * 1 lam20n1 ) ( * ( - 1 ) lam20n2 ) ( * ( - 1 ) lam20n3 ) ( * Nl2CT1 lam20n4 ) ( * Nl2CT2 lam20n5 ) ( - 1 ( - ( + ( + RFN1_CT ( * RFN1_arg1 1 ) ) ( * RFN1_arg3 1 ) ) RFN1_CT ) ) ) 0 ) ( = ( + ( * ( - 1 ) lam20n2 ) ( * Nl2arg11 lam20n4 ) ( * Nl2arg12 lam20n5 ) ( - ( - ( + ( + 0 ( * RFN1_arg1 1 ) ) ( * RFN1_arg3 1 ) ) RFN1_arg1 ) ) ) 0 ) ( = ( + ( * 1 lam20n0 ) ( * 1 lam20n3 ) ( * Nl2arg21 lam20n4 ) ( * Nl2arg22 lam20n5 ) ( - ( - ( + ( + 0 RFN1_arg2 ) ( * RFN1_arg3 1 ) ) RFN1_arg2 ) ) ) 0 ) ( = ( + ( * ( - 1 ) lam20n1 ) ( * Nl2arg31 lam20n4 ) ( * Nl2arg32 lam20n5 ) ( - ( - RFN1_arg3 ) ) ) 0 ) ( = ( * ( - 2 ) lam20n0 ) 0 ) ( = ( * ( - 2 ) lam20n3 ) 0 ) ) ( and ( >= lam24n0 0 ) ( >= lam24n1 0 ) ( >= lam24n2 0 ) ( >= lam24n4 0 ) ( >= lam24n5 0 ) ( > ( + ( * 1 lam24n0 ) ( * 1 lam24n1 ) ( * ( - 1 ) lam24n2 ) ( * Nl2CT1 lam24n4 ) ( * Nl2CT2 lam24n5 ) ( - 1 ( - ( + ( + ( + RFN1_CT ( * RFN1_arg1 1 ) ) ( * RFN1_arg2 ( - 2 ) ) ) ( * RFN1_arg3 ( - 1 ) ) ) RFN1_CT ) ) ) 0 ) ( = ( + ( * ( - 1 ) lam24n2 ) ( * Nl2arg11 lam24n4 ) ( * Nl2arg12 lam24n5 ) ( - ( - ( + ( + 0 ( * RFN1_arg1 1 ) ) ( * RFN1_arg3 1 ) ) RFN1_arg1 ) ) ) 0 ) ( = ( + ( * 1 lam24n0 ) ( * 1 lam24n3 ) ( * Nl2arg21 lam24n4 ) ( * Nl2arg22 lam24n5 ) ( - ( - ( + ( + 0 ( * RFN1_arg2 1 ) ) ( * RFN1_arg3 1 ) ) RFN1_arg2 ) ) ) 0 ) ( = ( + ( * ( - 1 ) lam24n1 ) ( * Nl2arg31 lam24n4 ) ( * Nl2arg32 lam24n5 ) ( - ( - RFN1_arg3 ) ) ) 0 ) ( = ( * ( - 2 ) lam24n0 ) 0 ) ( = ( * ( - 2 ) lam24n3 ) 0 ) ) ( and ( >= lam28n0 0 ) ( >= lam28n1 0 ) ( >= lam28n2 0 ) ( >= lam28n4 0 ) ( >= lam28n5 0 ) ( > ( + ( * 1 lam28n0 ) ( * 1 lam28n1 ) ( * ( - 1 ) lam28n2 ) ( * ( - 1 ) lam28n3 ) ( * Nl2CT1 lam28n4 ) ( * Nl2CT2 lam28n5 ) ( - 1 ( - ( + ( + RFN1_CT ( * RFN1_arg1 1 ) ) ( * RFN1_arg3 1 ) ) RFN1_CT ) ) ) 0 ) ( = ( + ( * ( - 1 ) lam28n2 ) ( * Nl2arg11 lam28n4 ) ( * Nl2arg12 lam28n5 ) ( - ( - ( + ( + 0 ( * RFN1_arg1 1 ) ) ( * RFN1_arg3 1 ) ) RFN1_arg1 ) ) ) 0 ) ( = ( + ( * ( - 1 ) lam28n0 ) ( * 1 lam28n3 ) ( * Nl2arg21 lam28n4 ) ( * Nl2arg22 lam28n5 ) ( - ( - ( + ( + 0 RFN1_arg2 ) ( * RFN1_arg3 1 ) ) RFN1_arg2 ) ) ) 0 ) ( = ( + ( * ( - 1 ) lam28n1 ) ( * Nl2arg31 lam28n4 ) ( * Nl2arg32 lam28n5 ) ( - ( - RFN1_arg3 ) ) ) 0 ) ( = ( * 2 lam28n0 ) 0 ) ( = ( * ( - 2 ) lam28n3 ) 0 ) ) ( and ( >= lam32n0 0 ) ( >= lam32n1 0 ) ( >= lam32n2 0 ) ( >= lam32n4 0 ) ( >= lam32n5 0 ) ( > ( + ( * 1 lam32n0 ) ( * 1 lam32n1 ) ( * ( - 1 ) lam32n2 ) ( * Nl2CT1 lam32n4 ) ( * Nl2CT2 lam32n5 ) ( - 1 ( - ( + ( + ( + RFN1_CT ( * RFN1_arg1 1 ) ) ( * RFN1_arg2 ( - 2 ) ) ) ( * RFN1_arg3 ( - 1 ) ) ) RFN1_CT ) ) ) 0 ) ( = ( + ( * ( - 1 ) lam32n2 ) ( * Nl2arg11 lam32n4 ) ( * Nl2arg12 lam32n5 ) ( - ( - ( + ( + 0 ( * RFN1_arg1 1 ) ) ( * RFN1_arg3 1 ) ) RFN1_arg1 ) ) ) 0 ) ( = ( + ( * ( - 1 ) lam32n0 ) ( * 1 lam32n3 ) ( * Nl2arg21 lam32n4 ) ( * Nl2arg22 lam32n5 ) ( - ( - ( + ( + 0 ( * RFN1_arg2 1 ) ) ( * RFN1_arg3 1 ) ) RFN1_arg2 ) ) ) 0 ) ( = ( + ( * ( - 1 ) lam32n1 ) ( * Nl2arg31 lam32n4 ) ( * Nl2arg32 lam32n5 ) ( - ( - RFN1_arg3 ) ) ) 0 ) ( = ( * 2 lam32n0 ) 0 ) ( = ( * ( - 2 ) lam32n3 ) 0 ) ) ( and ( >= lam36n0 0 ) ( >= lam36n1 0 ) ( >= lam36n4 0 ) ( >= lam36n5 0 ) ( > ( + ( * 1 lam36n0 ) ( * ( - 1 ) lam36n1 ) ( * Nl2CT1 lam36n4 ) ( * Nl2CT2 lam36n5 ) ( - 1 ( - ( + ( + ( + RFN1_CT ( * RFN1_arg1 1 ) ) ( * RFN1_arg2 ( - 2 ) ) ) ( * RFN1_arg3 ( - 1 ) ) ) RFN1_CT ) ) ) 0 ) ( = ( + ( * ( - 1 ) lam36n1 ) ( * Nl2arg11 lam36n4 ) ( * Nl2arg12 lam36n5 ) ( - ( - ( + ( + 0 ( * RFN1_arg1 1 ) ) ( * RFN1_arg3 1 ) ) RFN1_arg1 ) ) ) 0 ) ( = ( + ( * 1 lam36n2 ) ( * 1 lam36n3 ) ( * Nl2arg21 lam36n4 ) ( * Nl2arg22 lam36n5 ) ( - ( - ( + ( + 0 ( * RFN1_arg2 1 ) ) ( * RFN1_arg3 1 ) ) RFN1_arg2 ) ) ) 0 ) ( = ( + ( * ( - 1 ) lam36n0 ) ( * Nl2arg31 lam36n4 ) ( * Nl2arg32 lam36n5 ) ( - ( - RFN1_arg3 ) ) ) 0 ) ( = ( * ( - 2 ) lam36n2 ) 0 ) ( = ( * ( - 2 ) lam36n3 ) 0 ) ) ) ( or ( and ( and ( >= lam18n0 0 ) ( >= lam18n1 0 ) ( >= lam18n2 0 ) ( >= lam18n4 0 ) ( >= lam18n5 0 ) ( > ( + ( * 1 lam18n0 ) ( * 1 lam18n1 ) ( * ( - 1 ) lam18n2 ) ( * ( - 1 ) lam18n3 ) ( * Nl2CT1 lam18n4 ) ( * Nl2CT2 lam18n5 ) ( - 1 ( - RFN1_CT ) ) ) 0 ) ( = ( + ( * ( - 1 ) lam18n2 ) ( * Nl2arg11 lam18n4 ) ( * Nl2arg12 lam18n5 ) ( - ( - RFN1_arg1 ) ) ) 0 ) ( = ( + ( * 1 lam18n0 ) ( * 1 lam18n3 ) ( * Nl2arg21 lam18n4 ) ( * Nl2arg22 lam18n5 ) ( - ( - RFN1_arg2 ) ) ) 0 ) ( = ( + ( * ( - 1 ) lam18n1 ) ( * Nl2arg31 lam18n4 ) ( * Nl2arg32 lam18n5 ) ( - ( - RFN1_arg3 ) ) ) 0 ) ( = ( * ( - 2 ) lam18n0 ) 0 ) ( = ( * ( - 2 ) lam18n3 ) 0 ) ) ( and ( >= lam19n0 0 ) ( >= lam19n1 0 ) ( >= lam19n2 0 ) ( >= lam19n4 0 ) ( >= lam19n5 0 ) ( > ( + ( * 1 lam19n0 ) ( * 1 lam19n1 ) ( * ( - 1 ) lam19n2 ) ( * ( - 1 ) lam19n3 ) ( * Nl2CT1 lam19n4 ) ( * Nl2CT2 lam19n5 ) ( - 1 ( + ( - ( + ( + RFN1_CT ( * RFN1_arg1 1 ) ) ( * RFN1_arg3 1 ) ) RFN1_CT ) 1 ) ) ) 0 ) ( = ( + ( * ( - 1 ) lam19n2 ) ( * Nl2arg11 lam19n4 ) ( * Nl2arg12 lam19n5 ) ( - ( - ( + ( + 0 ( * RFN1_arg1 1 ) ) ( * RFN1_arg3 1 ) ) RFN1_arg1 ) ) ) 0 ) ( = ( + ( * 1 lam19n0 ) ( * 1 lam19n3 ) ( * Nl2arg21 lam19n4 ) ( * Nl2arg22 lam19n5 ) ( - ( - ( + ( + 0 RFN1_arg2 ) ( * RFN1_arg3 1 ) ) RFN1_arg2 ) ) ) 0 ) ( = ( + ( * ( - 1 ) lam19n1 ) ( * Nl2arg31 lam19n4 ) ( * Nl2arg32 lam19n5 ) ( - ( - RFN1_arg3 ) ) ) 0 ) ( = ( * ( - 2 ) lam19n0 ) 0 ) ( = ( * ( - 2 ) lam19n3 ) 0 ) ) ) ( and ( and ( >= lam22n0 0 ) ( >= lam22n1 0 ) ( >= lam22n2 0 ) ( >= lam22n4 0 ) ( >= lam22n5 0 ) ( > ( + ( * 1 lam22n0 ) ( * 1 lam22n1 ) ( * ( - 1 ) lam22n2 ) ( * Nl2CT1 lam22n4 ) ( * Nl2CT2 lam22n5 ) ( - 1 ( - RFN1_CT ) ) ) 0 ) ( = ( + ( * ( - 1 ) lam22n2 ) ( * Nl2arg11 lam22n4 ) ( * Nl2arg12 lam22n5 ) ( - ( - RFN1_arg1 ) ) ) 0 ) ( = ( + ( * 1 lam22n0 ) ( * 1 lam22n3 ) ( * Nl2arg21 lam22n4 ) ( * Nl2arg22 lam22n5 ) ( - ( - RFN1_arg2 ) ) ) 0 ) ( = ( + ( * ( - 1 ) lam22n1 ) ( * Nl2arg31 lam22n4 ) ( * Nl2arg32 lam22n5 ) ( - ( - RFN1_arg3 ) ) ) 0 ) ( = ( * ( - 2 ) lam22n0 ) 0 ) ( = ( * ( - 2 ) lam22n3 ) 0 ) ) ( and ( >= lam23n0 0 ) ( >= lam23n1 0 ) ( >= lam23n2 0 ) ( >= lam23n4 0 ) ( >= lam23n5 0 ) ( > ( + ( * 1 lam23n0 ) ( * 1 lam23n1 ) ( * ( - 1 ) lam23n2 ) ( * Nl2CT1 lam23n4 ) ( * Nl2CT2 lam23n5 ) ( - 1 ( + ( - ( + ( + ( + RFN1_CT ( * RFN1_arg1 1 ) ) ( * RFN1_arg2 ( - 2 ) ) ) ( * RFN1_arg3 ( - 1 ) ) ) RFN1_CT ) 1 ) ) ) 0 ) ( = ( + ( * ( - 1 ) lam23n2 ) ( * Nl2arg11 lam23n4 ) ( * Nl2arg12 lam23n5 ) ( - ( - ( + ( + 0 ( * RFN1_arg1 1 ) ) ( * RFN1_arg3 1 ) ) RFN1_arg1 ) ) ) 0 ) ( = ( + ( * 1 lam23n0 ) ( * 1 lam23n3 ) ( * Nl2arg21 lam23n4 ) ( * Nl2arg22 lam23n5 ) ( - ( - ( + ( + 0 ( * RFN1_arg2 1 ) ) ( * RFN1_arg3 1 ) ) RFN1_arg2 ) ) ) 0 ) ( = ( + ( * ( - 1 ) lam23n1 ) ( * Nl2arg31 lam23n4 ) ( * Nl2arg32 lam23n5 ) ( - ( - RFN1_arg3 ) ) ) 0 ) ( = ( * ( - 2 ) lam23n0 ) 0 ) ( = ( * ( - 2 ) lam23n3 ) 0 ) ) ) ( and ( and ( >= lam26n0 0 ) ( >= lam26n1 0 ) ( >= lam26n2 0 ) ( >= lam26n4 0 ) ( >= lam26n5 0 ) ( > ( + ( * 1 lam26n0 ) ( * 1 lam26n1 ) ( * ( - 1 ) lam26n2 ) ( * ( - 1 ) lam26n3 ) ( * Nl2CT1 lam26n4 ) ( * Nl2CT2 lam26n5 ) ( - 1 ( - RFN1_CT ) ) ) 0 ) ( = ( + ( * ( - 1 ) lam26n2 ) ( * Nl2arg11 lam26n4 ) ( * Nl2arg12 lam26n5 ) ( - ( - RFN1_arg1 ) ) ) 0 ) ( = ( + ( * ( - 1 ) lam26n0 ) ( * 1 lam26n3 ) ( * Nl2arg21 lam26n4 ) ( * Nl2arg22 lam26n5 ) ( - ( - RFN1_arg2 ) ) ) 0 ) ( = ( + ( * ( - 1 ) lam26n1 ) ( * Nl2arg31 lam26n4 ) ( * Nl2arg32 lam26n5 ) ( - ( - RFN1_arg3 ) ) ) 0 ) ( = ( * 2 lam26n0 ) 0 ) ( = ( * ( - 2 ) lam26n3 ) 0 ) ) ( and ( >= lam27n0 0 ) ( >= lam27n1 0 ) ( >= lam27n2 0 ) ( >= lam27n4 0 ) ( >= lam27n5 0 ) ( > ( + ( * 1 lam27n0 ) ( * 1 lam27n1 ) ( * ( - 1 ) lam27n2 ) ( * ( - 1 ) lam27n3 ) ( * Nl2CT1 lam27n4 ) ( * Nl2CT2 lam27n5 ) ( - 1 ( + ( - ( + ( + RFN1_CT ( * RFN1_arg1 1 ) ) ( * RFN1_arg3 1 ) ) RFN1_CT ) 1 ) ) ) 0 ) ( = ( + ( * ( - 1 ) lam27n2 ) ( * Nl2arg11 lam27n4 ) ( * Nl2arg12 lam27n5 ) ( - ( - ( + ( + 0 ( * RFN1_arg1 1 ) ) ( * RFN1_arg3 1 ) ) RFN1_arg1 ) ) ) 0 ) ( = ( + ( * ( - 1 ) lam27n0 ) ( * 1 lam27n3 ) ( * Nl2arg21 lam27n4 ) ( * Nl2arg22 lam27n5 ) ( - ( - ( + ( + 0 RFN1_arg2 ) ( * RFN1_arg3 1 ) ) RFN1_arg2 ) ) ) 0 ) ( = ( + ( * ( - 1 ) lam27n1 ) ( * Nl2arg31 lam27n4 ) ( * Nl2arg32 lam27n5 ) ( - ( - RFN1_arg3 ) ) ) 0 ) ( = ( * 2 lam27n0 ) 0 ) ( = ( * ( - 2 ) lam27n3 ) 0 ) ) ) ( and ( and ( >= lam30n0 0 ) ( >= lam30n1 0 ) ( >= lam30n2 0 ) ( >= lam30n4 0 ) ( >= lam30n5 0 ) ( > ( + ( * 1 lam30n0 ) ( * 1 lam30n1 ) ( * ( - 1 ) lam30n2 ) ( * Nl2CT1 lam30n4 ) ( * Nl2CT2 lam30n5 ) ( - 1 ( - RFN1_CT ) ) ) 0 ) ( = ( + ( * ( - 1 ) lam30n2 ) ( * Nl2arg11 lam30n4 ) ( * Nl2arg12 lam30n5 ) ( - ( - RFN1_arg1 ) ) ) 0 ) ( = ( + ( * ( - 1 ) lam30n0 ) ( * 1 lam30n3 ) ( * Nl2arg21 lam30n4 ) ( * Nl2arg22 lam30n5 ) ( - ( - RFN1_arg2 ) ) ) 0 ) ( = ( + ( * ( - 1 ) lam30n1 ) ( * Nl2arg31 lam30n4 ) ( * Nl2arg32 lam30n5 ) ( - ( - RFN1_arg3 ) ) ) 0 ) ( = ( * 2 lam30n0 ) 0 ) ( = ( * ( - 2 ) lam30n3 ) 0 ) ) ( and ( >= lam31n0 0 ) ( >= lam31n1 0 ) ( >= lam31n2 0 ) ( >= lam31n4 0 ) ( >= lam31n5 0 ) ( > ( + ( * 1 lam31n0 ) ( * 1 lam31n1 ) ( * ( - 1 ) lam31n2 ) ( * Nl2CT1 lam31n4 ) ( * Nl2CT2 lam31n5 ) ( - 1 ( + ( - ( + ( + ( + RFN1_CT ( * RFN1_arg1 1 ) ) ( * RFN1_arg2 ( - 2 ) ) ) ( * RFN1_arg3 ( - 1 ) ) ) RFN1_CT ) 1 ) ) ) 0 ) ( = ( + ( * ( - 1 ) lam31n2 ) ( * Nl2arg11 lam31n4 ) ( * Nl2arg12 lam31n5 ) ( - ( - ( + ( + 0 ( * RFN1_arg1 1 ) ) ( * RFN1_arg3 1 ) ) RFN1_arg1 ) ) ) 0 ) ( = ( + ( * ( - 1 ) lam31n0 ) ( * 1 lam31n3 ) ( * Nl2arg21 lam31n4 ) ( * Nl2arg22 lam31n5 ) ( - ( - ( + ( + 0 ( * RFN1_arg2 1 ) ) ( * RFN1_arg3 1 ) ) RFN1_arg2 ) ) ) 0 ) ( = ( + ( * ( - 1 ) lam31n1 ) ( * Nl2arg31 lam31n4 ) ( * Nl2arg32 lam31n5 ) ( - ( - RFN1_arg3 ) ) ) 0 ) ( = ( * 2 lam31n0 ) 0 ) ( = ( * ( - 2 ) lam31n3 ) 0 ) ) ) ( and ( and ( >= lam34n0 0 ) ( >= lam34n1 0 ) ( >= lam34n4 0 ) ( >= lam34n5 0 ) ( > ( + ( * 1 lam34n0 ) ( * ( - 1 ) lam34n1 ) ( * Nl2CT1 lam34n4 ) ( * Nl2CT2 lam34n5 ) ( - 1 ( - RFN1_CT ) ) ) 0 ) ( = ( + ( * ( - 1 ) lam34n1 ) ( * Nl2arg11 lam34n4 ) ( * Nl2arg12 lam34n5 ) ( - ( - RFN1_arg1 ) ) ) 0 ) ( = ( + ( * 1 lam34n2 ) ( * 1 lam34n3 ) ( * Nl2arg21 lam34n4 ) ( * Nl2arg22 lam34n5 ) ( - ( - RFN1_arg2 ) ) ) 0 ) ( = ( + ( * ( - 1 ) lam34n0 ) ( * Nl2arg31 lam34n4 ) ( * Nl2arg32 lam34n5 ) ( - ( - RFN1_arg3 ) ) ) 0 ) ( = ( * ( - 2 ) lam34n2 ) 0 ) ( = ( * ( - 2 ) lam34n3 ) 0 ) ) ( and ( >= lam35n0 0 ) ( >= lam35n1 0 ) ( >= lam35n4 0 ) ( >= lam35n5 0 ) ( > ( + ( * 1 lam35n0 ) ( * ( - 1 ) lam35n1 ) ( * Nl2CT1 lam35n4 ) ( * Nl2CT2 lam35n5 ) ( - 1 ( + ( - ( + ( + ( + RFN1_CT ( * RFN1_arg1 1 ) ) ( * RFN1_arg2 ( - 2 ) ) ) ( * RFN1_arg3 ( - 1 ) ) ) RFN1_CT ) 1 ) ) ) 0 ) ( = ( + ( * ( - 1 ) lam35n1 ) ( * Nl2arg11 lam35n4 ) ( * Nl2arg12 lam35n5 ) ( - ( - ( + ( + 0 ( * RFN1_arg1 1 ) ) ( * RFN1_arg3 1 ) ) RFN1_arg1 ) ) ) 0 ) ( = ( + ( * 1 lam35n2 ) ( * 1 lam35n3 ) ( * Nl2arg21 lam35n4 ) ( * Nl2arg22 lam35n5 ) ( - ( - ( + ( + 0 ( * RFN1_arg2 1 ) ) ( * RFN1_arg3 1 ) ) RFN1_arg2 ) ) ) 0 ) ( = ( + ( * ( - 1 ) lam35n0 ) ( * Nl2arg31 lam35n4 ) ( * Nl2arg32 lam35n5 ) ( - ( - RFN1_arg3 ) ) ) 0 ) ( = ( * ( - 2 ) lam35n2 ) 0 ) ( = ( * ( - 2 ) lam35n3 ) 0 ) ) ) ) ) ( or ( and ( >= lam17n0 0 ) ( >= lam17n1 0 ) ( >= lam17n2 0 ) ( >= lam17n4 0 ) ( >= lam17n5 0 ) ( > ( + ( * 1 lam17n0 ) ( * 1 lam17n1 ) ( * ( - 1 ) lam17n2 ) ( * ( - 1 ) lam17n3 ) ( * Nl2CT1 lam17n4 ) ( * Nl2CT2 lam17n5 ) ( - 1 ) ) 0 ) ( = ( + ( * ( - 1 ) lam17n2 ) ( * Nl2arg11 lam17n4 ) ( * Nl2arg12 lam17n5 ) ) 0 ) ( = ( + ( * 1 lam17n0 ) ( * 1 lam17n3 ) ( * Nl2arg21 lam17n4 ) ( * Nl2arg22 lam17n5 ) ) 0 ) ( = ( + ( * ( - 1 ) lam17n1 ) ( * Nl2arg31 lam17n4 ) ( * Nl2arg32 lam17n5 ) ) 0 ) ( = ( * ( - 2 ) lam17n0 ) 0 ) ( = ( * ( - 2 ) lam17n3 ) 0 ) ) ( and ( >= lam21n0 0 ) ( >= lam21n1 0 ) ( >= lam21n2 0 ) ( >= lam21n4 0 ) ( >= lam21n5 0 ) ( > ( + ( * 1 lam21n0 ) ( * 1 lam21n1 ) ( * ( - 1 ) lam21n2 ) ( * Nl2CT1 lam21n4 ) ( * Nl2CT2 lam21n5 ) ( - 1 ) ) 0 ) ( = ( + ( * ( - 1 ) lam21n2 ) ( * Nl2arg11 lam21n4 ) ( * Nl2arg12 lam21n5 ) ) 0 ) ( = ( + ( * 1 lam21n0 ) ( * 1 lam21n3 ) ( * Nl2arg21 lam21n4 ) ( * Nl2arg22 lam21n5 ) ) 0 ) ( = ( + ( * ( - 1 ) lam21n1 ) ( * Nl2arg31 lam21n4 ) ( * Nl2arg32 lam21n5 ) ) 0 ) ( = ( * ( - 2 ) lam21n0 ) 0 ) ( = ( * ( - 2 ) lam21n3 ) 0 ) ) ( and ( >= lam25n0 0 ) ( >= lam25n1 0 ) ( >= lam25n2 0 ) ( >= lam25n4 0 ) ( >= lam25n5 0 ) ( > ( + ( * 1 lam25n0 ) ( * 1 lam25n1 ) ( * ( - 1 ) lam25n2 ) ( * ( - 1 ) lam25n3 ) ( * Nl2CT1 lam25n4 ) ( * Nl2CT2 lam25n5 ) ( - 1 ) ) 0 ) ( = ( + ( * ( - 1 ) lam25n2 ) ( * Nl2arg11 lam25n4 ) ( * Nl2arg12 lam25n5 ) ) 0 ) ( = ( + ( * ( - 1 ) lam25n0 ) ( * 1 lam25n3 ) ( * Nl2arg21 lam25n4 ) ( * Nl2arg22 lam25n5 ) ) 0 ) ( = ( + ( * ( - 1 ) lam25n1 ) ( * Nl2arg31 lam25n4 ) ( * Nl2arg32 lam25n5 ) ) 0 ) ( = ( * 2 lam25n0 ) 0 ) ( = ( * ( - 2 ) lam25n3 ) 0 ) ) ( and ( >= lam29n0 0 ) ( >= lam29n1 0 ) ( >= lam29n2 0 ) ( >= lam29n4 0 ) ( >= lam29n5 0 ) ( > ( + ( * 1 lam29n0 ) ( * 1 lam29n1 ) ( * ( - 1 ) lam29n2 ) ( * Nl2CT1 lam29n4 ) ( * Nl2CT2 lam29n5 ) ( - 1 ) ) 0 ) ( = ( + ( * ( - 1 ) lam29n2 ) ( * Nl2arg11 lam29n4 ) ( * Nl2arg12 lam29n5 ) ) 0 ) ( = ( + ( * ( - 1 ) lam29n0 ) ( * 1 lam29n3 ) ( * Nl2arg21 lam29n4 ) ( * Nl2arg22 lam29n5 ) ) 0 ) ( = ( + ( * ( - 1 ) lam29n1 ) ( * Nl2arg31 lam29n4 ) ( * Nl2arg32 lam29n5 ) ) 0 ) ( = ( * 2 lam29n0 ) 0 ) ( = ( * ( - 2 ) lam29n3 ) 0 ) ) ( and ( >= lam33n0 0 ) ( >= lam33n1 0 ) ( >= lam33n4 0 ) ( >= lam33n5 0 ) ( > ( + ( * 1 lam33n0 ) ( * ( - 1 ) lam33n1 ) ( * Nl2CT1 lam33n4 ) ( * Nl2CT2 lam33n5 ) ( - 1 ) ) 0 ) ( = ( + ( * ( - 1 ) lam33n1 ) ( * Nl2arg11 lam33n4 ) ( * Nl2arg12 lam33n5 ) ) 0 ) ( = ( + ( * 1 lam33n2 ) ( * 1 lam33n3 ) ( * Nl2arg21 lam33n4 ) ( * Nl2arg22 lam33n5 ) ) 0 ) ( = ( + ( * ( - 1 ) lam33n0 ) ( * Nl2arg31 lam33n4 ) ( * Nl2arg32 lam33n5 ) ) 0 ) ( = ( * ( - 2 ) lam33n2 ) 0 ) ( = ( * ( - 2 ) lam33n3 ) 0 ) ) ) ))
(check-sat)
(exit)
